C  Fe H  N 
 1.0000000000000000
    24.0000000000000000    0.0000000000000000    0.0000000000000000
     0.0000000000000000   22.0000000000000000    0.0000000000000000
     0.0000000000000000    0.0000000000000000   16.0000000000000000
 C   Fe  H   N  
  36   1  16   4
Selective dynamics
Direct
  0.6337941774530576  0.3265019792402013  0.5000000000000000   F   F   F
  0.5220069347942857  0.6955498159992259  0.5000000000000000   F   F   F
  0.5361371534057083  0.2912981289084072  0.5000000000000000   F   F   F
  0.4243499107469316  0.6603459656674366  0.5000000000000000   F   F   F
  0.6546758790284265  0.4363658636898902  0.5000000000000000   F   F   F
  0.5570188549810725  0.4011620133581009  0.5000000000000000   F   F   F
  0.4593618309337231  0.3659581630263069  0.5000000000000000   F   F   F
  0.3617048068863739  0.3307543126945128  0.5000000000000000   F   F   F
  0.6755575803265372  0.5462297478002813  0.5000000000000000   F   F   F
  0.4384801293583542  0.2560942785766178  0.5000000000000000   F   F   F
  0.6964392819019062  0.6560936322499703  0.5000000000000000   F   F   F
  0.5987822578545569  0.6208897819181761  0.5000000000000000   F   F   F
  0.4034682094488257  0.5504820815570514  0.5000000000000000   F   F   F
  0.3058111854014716  0.5152782312252620  0.5000000000000000   F   F   F
  0.6196639588416351  0.7307536663310201  0.5000000000000000   F   F   F
  0.2849294838261074  0.4054143467755683  0.5000000000000000   F   F   F
  0.3035607184654904  0.3439063677117206  0.5000000000000000   F   F   F
  0.3266928866995824  0.6251421153356426  0.5000000000000000   F   F   F
  0.3825865078734567  0.4406181971073623  0.5000000000000000   F   F   F
  0.3662058223260483  0.6734980206846338  0.5000000000000000   F   F   F
  0.3244424194525686  0.4537702521245645  0.5000000000000000   F   F   F
  0.5756500890321741  0.3396540342574091  0.5000000000000000   F   F   F
  0.4779930649848248  0.3044501839256151  0.5000000000000000   F   F   F
  0.3803360412147287  0.2692463339331340  0.5000000000000000   F   F   F
  0.6941888146548922  0.4847217690388922  0.5000000000000000   F   F   F
  0.4012177425128397  0.3791102180435146  0.5000000000000000   F   F   F
  0.7150705159530031  0.5945856531492727  0.5000000000000000   F   F   F
  0.5965317906075430  0.4495179187070981  0.5000000000000000   F   F   F
  0.6174134919056540  0.5593818028174786  0.5000000000000000   F   F   F
  0.6382951934810180  0.6692456872671723  0.5000000000000000   F   F   F
  0.5406381694336687  0.6340418369353783  0.5000000000000000   F   F   F
  0.4429811450752867  0.5988379869060474  0.5000000000000000   F   F   F
  0.3453241210279374  0.5636341365742533  0.5000000000000000   F   F   F
  0.5615198704207469  0.7439057213482221  0.5000000000000000   F   F   F
  0.6733071130795235  0.3748578845892032  0.5000000000000000   F   F   F
  0.4638628463733976  0.7087018710164280  0.5000000000000000   F   F   F
  0.5000000000000000  0.5000000000000000  0.5000000000000000   T   T   T
  0.7262953031946499  0.6934418547329779  0.5000000000000000   T   T   T
  0.2405677593021752  0.4160365433478810  0.5000000000000000   T   T   T
  0.5504487085657861  0.2443051563401939  0.5000000000000000   T   T   T
  0.3522392242602918  0.7206662826918502  0.5000000000000000   T   T   T
  0.2613794384500765  0.5254101319554497  0.5000000000000000   T   T   T
  0.4532301553925169  0.2092333045324510  0.5000000000000000   T   T   T
  0.6477607755188189  0.2793337172329909  0.5000000000000000   T   T   T
  0.6502579218993679  0.7673842785009902  0.5000000000000000   T   T   T
  0.4495512912133196  0.7556948435846518  0.5000000000000000   T   T   T
  0.7178590072998589  0.3651198892604311  0.5000000000000000   T   T   T
  0.3497420779169241  0.2326157219966105  0.5000000000000000   T   T   T
  0.7386205616628314  0.4745898686062027  0.5000000000000000   T   T   T
  0.2737046974128085  0.3065581449952545  0.5000000000000000   T   T   T
  0.7594322404530303  0.5839634564512169  0.5000000000000000   T   T   T
  0.5467698441221354  0.7907666952970671  0.5000000000000000   T   T   T
  0.2821409924227030  0.6348801103669059  0.5000000000000000   T   T   T
  0.5795181809584484  0.5099935198128727  0.5000000000000000   T   T   T
  0.4999999746685891  0.5873208670014703  0.5000000000000000   T   T   T
  0.5000000253877748  0.4126791332626837  0.5000000000000000   T   T   T
  0.4204818191316902  0.4900064798095098  0.5000000000000000   T   T   T
